2093063
1 2 106843
2 3 14475
3 17 20583
17 11 115113
11 20 34792
20 5 53722
5 18 90145
18 8 112033
8 15 67784
15 19 105166
19 4 238489
4 16 223220
16 10 21150
10 14 95892
14 6 287665
6 12 255761
12 9 50021
9 13 45504
13 7 118893
7 1 35812
